n_res = 4;
rc = [ 31, 27, 15, 24 ];
n_tasks = 30;
d = [ 10, 5, 2, 4, 6, 6, 2, 2, 7, 2, 2, 6, 7, 1, 3, 5, 4, 4, 5, 9, 2, 9, 7, 10, 9, 1, 8, 2, 6, 4 ];
rr = [| 1, 0, 4, 2, 0, 0, 0, 7, 9, 1, 2, 1, 0, 0, 7, 0, 0, 0, 0, 6, 9, 7, 5, 6, 0, 0, 0, 0, 0, 7
      | 0, 0, 0, 0, 0, 4, 1, 0, 0, 0, 2, 5, 6, 10, 4, 4, 0, 0, 7, 5, 6, 4, 1, 0, 8, 0, 3, 2, 7, 0
      | 0, 0, 5, 0, 4, 7, 0, 0, 8, 4, 6, 0, 0, 0, 1, 1, 3, 3, 0, 0, 0, 1, 0, 6, 0, 0, 0, 0, 9, 0
      | 0, 10, 8, 8, 2, 2, 2, 6, 0, 0, 5, 0, 0, 0, 0, 0, 5, 0, 3, 0, 0, 10, 0, 0, 0, 7, 8, 8, 7, 6 |];
suc = [ { 2 }, 
        { 3 }, 
        { 4 }, 
        { 5 }, 
        { 6 }, 
        { 7 }, 
        { 8 }, 
        { 9 }, 
        { 10 }, 
        { 11 }, 
        { 12 }, 
        { 13 }, 
        { 14 }, 
        { 15 }, 
        { 16 }, 
        { 17 }, 
        { 18 }, 
        { 19 }, 
        { 20 }, 
        { 21 }, 
        { 22 }, 
        { 23 }, 
        { 24 }, 
        { 25 }, 
        { 26 }, 
        { 27 }, 
        { 28 }, 
        { 29 }, 
        { 30 }, 
        {  }]; 
